\ Model tsp
\ LP format - for model browsing. Use MPS format to capture full model detail.
\ Signature: 0x5e11788cf31f3cd5
Minimize
  28 X[0,1] + 41 X[0,2] + 63 X[0,3] + 39 X[0,4] + 38 X[0,5] + 45 X[0,6]
   + 35 X[0,7] + 28 X[0,8] + 44 X[0,9] + 35 X[0,10] + 28 X[1,0] + 27 X[1,2]
   + 87 X[1,3] + 35 X[1,4] + 65 X[1,5] + 63 X[1,6] + 41 X[1,7] + 39 X[1,8]
   + 43 X[1,9] + 20 X[1,10] + 41 X[2,0] + 27 X[2,1] + 81 X[2,3] + 13 X[2,4]
   + 77 X[2,5] + 54 X[2,6] + 25 X[2,7] + 63 X[2,8] + 70 X[2,9] + 7 X[2,10]
   + 63 X[3,0] + 87 X[3,1] + 81 X[3,2] + 69 X[3,4] + 53 X[3,5] + 28 X[3,6]
   + 57 X[3,7] + 83 X[3,8] + 102 X[3,9] + 81 X[3,10] + 39 X[4,0]
   + 35 X[4,1] + 13 X[4,2] + 69 X[4,3] + 72 X[4,5] + 41 X[4,6] + 12 X[4,7]
   + 64 X[4,8] + 75 X[4,9] + 17 X[4,10] + 38 X[5,0] + 65 X[5,1] + 77 X[5,2]
   + 53 X[5,3] + 72 X[5,4] + 53 X[5,6] + 64 X[5,7] + 39 X[5,8] + 58 X[5,9]
   + 72 X[5,10] + 45 X[6,0] + 63 X[6,1] + 54 X[6,2] + 28 X[6,3] + 41 X[6,4]
   + 53 X[6,5] + 29 X[6,7] + 70 X[6,8] + 88 X[6,9] + 54 X[6,10] + 35 X[7,0]
   + 41 X[7,1] + 25 X[7,2] + 57 X[7,3] + 12 X[7,4] + 64 X[7,5] + 29 X[7,6]
   + 63 X[7,8] + 76 X[7,9] + 27 X[7,10] + 28 X[8,0] + 39 X[8,1] + 63 X[8,2]
   + 83 X[8,3] + 64 X[8,4] + 39 X[8,5] + 70 X[8,6] + 63 X[8,7] + 20 X[8,9]
   + 56 X[8,10] + 44 X[9,0] + 43 X[9,1] + 70 X[9,2] + 102 X[9,3]
   + 75 X[9,4] + 58 X[9,5] + 88 X[9,6] + 76 X[9,7] + 20 X[9,8] + 63 X[9,10]
   + 35 X[10,0] + 20 X[10,1] + 7 X[10,2] + 81 X[10,3] + 17 X[10,4]
   + 72 X[10,5] + 54 X[10,6] + 27 X[10,7] + 56 X[10,8] + 63 X[10,9]
Subject To
 depart_0: X[0,1] + X[0,2] + X[0,3] + X[0,4] + X[0,5] + X[0,6] + X[0,7]
   + X[0,8] + X[0,9] + X[0,10] = 1
 depart_1: X[1,0] + X[1,2] + X[1,3] + X[1,4] + X[1,5] + X[1,6] + X[1,7]
   + X[1,8] + X[1,9] + X[1,10] = 1
 depart_2: X[2,0] + X[2,1] + X[2,3] + X[2,4] + X[2,5] + X[2,6] + X[2,7]
   + X[2,8] + X[2,9] + X[2,10] = 1
 depart_3: X[3,0] + X[3,1] + X[3,2] + X[3,4] + X[3,5] + X[3,6] + X[3,7]
   + X[3,8] + X[3,9] + X[3,10] = 1
 depart_4: X[4,0] + X[4,1] + X[4,2] + X[4,3] + X[4,5] + X[4,6] + X[4,7]
   + X[4,8] + X[4,9] + X[4,10] = 1
 depart_5: X[5,0] + X[5,1] + X[5,2] + X[5,3] + X[5,4] + X[5,6] + X[5,7]
   + X[5,8] + X[5,9] + X[5,10] = 1
 depart_6: X[6,0] + X[6,1] + X[6,2] + X[6,3] + X[6,4] + X[6,5] + X[6,7]
   + X[6,8] + X[6,9] + X[6,10] = 1
 depart_7: X[7,0] + X[7,1] + X[7,2] + X[7,3] + X[7,4] + X[7,5] + X[7,6]
   + X[7,8] + X[7,9] + X[7,10] = 1
 depart_8: X[8,0] + X[8,1] + X[8,2] + X[8,3] + X[8,4] + X[8,5] + X[8,6]
   + X[8,7] + X[8,9] + X[8,10] = 1
 depart_9: X[9,0] + X[9,1] + X[9,2] + X[9,3] + X[9,4] + X[9,5] + X[9,6]
   + X[9,7] + X[9,8] + X[9,10] = 1
 depart_10: X[10,0] + X[10,1] + X[10,2] + X[10,3] + X[10,4] + X[10,5]
   + X[10,6] + X[10,7] + X[10,8] + X[10,9] = 1
 arrive_0: X[1,0] + X[2,0] + X[3,0] + X[4,0] + X[5,0] + X[6,0] + X[7,0]
   + X[8,0] + X[9,0] + X[10,0] = 1
 arrive_1: X[0,1] + X[2,1] + X[3,1] + X[4,1] + X[5,1] + X[6,1] + X[7,1]
   + X[8,1] + X[9,1] + X[10,1] = 1
 arrive_2: X[0,2] + X[1,2] + X[3,2] + X[4,2] + X[5,2] + X[6,2] + X[7,2]
   + X[8,2] + X[9,2] + X[10,2] = 1
 arrive_3: X[0,3] + X[1,3] + X[2,3] + X[4,3] + X[5,3] + X[6,3] + X[7,3]
   + X[8,3] + X[9,3] + X[10,3] = 1
 arrive_4: X[0,4] + X[1,4] + X[2,4] + X[3,4] + X[5,4] + X[6,4] + X[7,4]
   + X[8,4] + X[9,4] + X[10,4] = 1
 arrive_5: X[0,5] + X[1,5] + X[2,5] + X[3,5] + X[4,5] + X[6,5] + X[7,5]
   + X[8,5] + X[9,5] + X[10,5] = 1
 arrive_6: X[0,6] + X[1,6] + X[2,6] + X[3,6] + X[4,6] + X[5,6] + X[7,6]
   + X[8,6] + X[9,6] + X[10,6] = 1
 arrive_7: X[0,7] + X[1,7] + X[2,7] + X[3,7] + X[4,7] + X[5,7] + X[6,7]
   + X[8,7] + X[9,7] + X[10,7] = 1
 arrive_8: X[0,8] + X[1,8] + X[2,8] + X[3,8] + X[4,8] + X[5,8] + X[6,8]
   + X[7,8] + X[9,8] + X[10,8] = 1
 arrive_9: X[0,9] + X[1,9] + X[2,9] + X[3,9] + X[4,9] + X[5,9] + X[6,9]
   + X[7,9] + X[8,9] + X[10,9] = 1
 arrive_10: X[0,10] + X[1,10] + X[2,10] + X[3,10] + X[4,10] + X[5,10]
   + X[6,10] + X[7,10] + X[8,10] + X[9,10] = 1
 mtz_1_2: 10 X[1,2] + U[1] - U[2] <= 9
 mtz_1_3: 10 X[1,3] + U[1] - U[3] <= 9
 mtz_1_4: 10 X[1,4] + U[1] - U[4] <= 9
 mtz_1_5: 10 X[1,5] + U[1] - U[5] <= 9
 mtz_1_6: 10 X[1,6] + U[1] - U[6] <= 9
 mtz_1_7: 10 X[1,7] + U[1] - U[7] <= 9
 mtz_1_8: 10 X[1,8] + U[1] - U[8] <= 9
 mtz_1_9: 10 X[1,9] + U[1] - U[9] <= 9
 mtz_1_10: 10 X[1,10] + U[1] - U[10] <= 9
 mtz_2_1: 10 X[2,1] - U[1] + U[2] <= 9
 mtz_2_3: 10 X[2,3] + U[2] - U[3] <= 9
 mtz_2_4: 10 X[2,4] + U[2] - U[4] <= 9
 mtz_2_5: 10 X[2,5] + U[2] - U[5] <= 9
 mtz_2_6: 10 X[2,6] + U[2] - U[6] <= 9
 mtz_2_7: 10 X[2,7] + U[2] - U[7] <= 9
 mtz_2_8: 10 X[2,8] + U[2] - U[8] <= 9
 mtz_2_9: 10 X[2,9] + U[2] - U[9] <= 9
 mtz_2_10: 10 X[2,10] + U[2] - U[10] <= 9
 mtz_3_1: 10 X[3,1] - U[1] + U[3] <= 9
 mtz_3_2: 10 X[3,2] - U[2] + U[3] <= 9
 mtz_3_4: 10 X[3,4] + U[3] - U[4] <= 9
 mtz_3_5: 10 X[3,5] + U[3] - U[5] <= 9
 mtz_3_6: 10 X[3,6] + U[3] - U[6] <= 9
 mtz_3_7: 10 X[3,7] + U[3] - U[7] <= 9
 mtz_3_8: 10 X[3,8] + U[3] - U[8] <= 9
 mtz_3_9: 10 X[3,9] + U[3] - U[9] <= 9
 mtz_3_10: 10 X[3,10] + U[3] - U[10] <= 9
 mtz_4_1: 10 X[4,1] - U[1] + U[4] <= 9
 mtz_4_2: 10 X[4,2] - U[2] + U[4] <= 9
 mtz_4_3: 10 X[4,3] - U[3] + U[4] <= 9
 mtz_4_5: 10 X[4,5] + U[4] - U[5] <= 9
 mtz_4_6: 10 X[4,6] + U[4] - U[6] <= 9
 mtz_4_7: 10 X[4,7] + U[4] - U[7] <= 9
 mtz_4_8: 10 X[4,8] + U[4] - U[8] <= 9
 mtz_4_9: 10 X[4,9] + U[4] - U[9] <= 9
 mtz_4_10: 10 X[4,10] + U[4] - U[10] <= 9
 mtz_5_1: 10 X[5,1] - U[1] + U[5] <= 9
 mtz_5_2: 10 X[5,2] - U[2] + U[5] <= 9
 mtz_5_3: 10 X[5,3] - U[3] + U[5] <= 9
 mtz_5_4: 10 X[5,4] - U[4] + U[5] <= 9
 mtz_5_6: 10 X[5,6] + U[5] - U[6] <= 9
 mtz_5_7: 10 X[5,7] + U[5] - U[7] <= 9
 mtz_5_8: 10 X[5,8] + U[5] - U[8] <= 9
 mtz_5_9: 10 X[5,9] + U[5] - U[9] <= 9
 mtz_5_10: 10 X[5,10] + U[5] - U[10] <= 9
 mtz_6_1: 10 X[6,1] - U[1] + U[6] <= 9
 mtz_6_2: 10 X[6,2] - U[2] + U[6] <= 9
 mtz_6_3: 10 X[6,3] - U[3] + U[6] <= 9
 mtz_6_4: 10 X[6,4] - U[4] + U[6] <= 9
 mtz_6_5: 10 X[6,5] - U[5] + U[6] <= 9
 mtz_6_7: 10 X[6,7] + U[6] - U[7] <= 9
 mtz_6_8: 10 X[6,8] + U[6] - U[8] <= 9
 mtz_6_9: 10 X[6,9] + U[6] - U[9] <= 9
 mtz_6_10: 10 X[6,10] + U[6] - U[10] <= 9
 mtz_7_1: 10 X[7,1] - U[1] + U[7] <= 9
 mtz_7_2: 10 X[7,2] - U[2] + U[7] <= 9
 mtz_7_3: 10 X[7,3] - U[3] + U[7] <= 9
 mtz_7_4: 10 X[7,4] - U[4] + U[7] <= 9
 mtz_7_5: 10 X[7,5] - U[5] + U[7] <= 9
 mtz_7_6: 10 X[7,6] - U[6] + U[7] <= 9
 mtz_7_8: 10 X[7,8] + U[7] - U[8] <= 9
 mtz_7_9: 10 X[7,9] + U[7] - U[9] <= 9
 mtz_7_10: 10 X[7,10] + U[7] - U[10] <= 9
 mtz_8_1: 10 X[8,1] - U[1] + U[8] <= 9
 mtz_8_2: 10 X[8,2] - U[2] + U[8] <= 9
 mtz_8_3: 10 X[8,3] - U[3] + U[8] <= 9
 mtz_8_4: 10 X[8,4] - U[4] + U[8] <= 9
 mtz_8_5: 10 X[8,5] - U[5] + U[8] <= 9
 mtz_8_6: 10 X[8,6] - U[6] + U[8] <= 9
 mtz_8_7: 10 X[8,7] - U[7] + U[8] <= 9
 mtz_8_9: 10 X[8,9] + U[8] - U[9] <= 9
 mtz_8_10: 10 X[8,10] + U[8] - U[10] <= 9
 mtz_9_1: 10 X[9,1] - U[1] + U[9] <= 9
 mtz_9_2: 10 X[9,2] - U[2] + U[9] <= 9
 mtz_9_3: 10 X[9,3] - U[3] + U[9] <= 9
 mtz_9_4: 10 X[9,4] - U[4] + U[9] <= 9
 mtz_9_5: 10 X[9,5] - U[5] + U[9] <= 9
 mtz_9_6: 10 X[9,6] - U[6] + U[9] <= 9
 mtz_9_7: 10 X[9,7] - U[7] + U[9] <= 9
 mtz_9_8: 10 X[9,8] - U[8] + U[9] <= 9
 mtz_9_10: 10 X[9,10] + U[9] - U[10] <= 9
 mtz_10_1: 10 X[10,1] - U[1] + U[10] <= 9
 mtz_10_2: 10 X[10,2] - U[2] + U[10] <= 9
 mtz_10_3: 10 X[10,3] - U[3] + U[10] <= 9
 mtz_10_4: 10 X[10,4] - U[4] + U[10] <= 9
 mtz_10_5: 10 X[10,5] - U[5] + U[10] <= 9
 mtz_10_6: 10 X[10,6] - U[6] + U[10] <= 9
 mtz_10_7: 10 X[10,7] - U[7] + U[10] <= 9
 mtz_10_8: 10 X[10,8] - U[8] + U[10] <= 9
 mtz_10_9: 10 X[10,9] - U[9] + U[10] <= 9
Bounds
 1 <= U[1] <= 10
 1 <= U[2] <= 10
 1 <= U[3] <= 10
 1 <= U[4] <= 10
 1 <= U[5] <= 10
 1 <= U[6] <= 10
 1 <= U[7] <= 10
 1 <= U[8] <= 10
 1 <= U[9] <= 10
 1 <= U[10] <= 10
Binaries
 X[0,1] X[0,2] X[0,3] X[0,4] X[0,5] X[0,6] X[0,7] X[0,8] X[0,9] X[0,10]
 X[1,0] X[1,2] X[1,3] X[1,4] X[1,5] X[1,6] X[1,7] X[1,8] X[1,9] X[1,10]
 X[2,0] X[2,1] X[2,3] X[2,4] X[2,5] X[2,6] X[2,7] X[2,8] X[2,9] X[2,10]
 X[3,0] X[3,1] X[3,2] X[3,4] X[3,5] X[3,6] X[3,7] X[3,8] X[3,9] X[3,10]
 X[4,0] X[4,1] X[4,2] X[4,3] X[4,5] X[4,6] X[4,7] X[4,8] X[4,9] X[4,10]
 X[5,0] X[5,1] X[5,2] X[5,3] X[5,4] X[5,6] X[5,7] X[5,8] X[5,9] X[5,10]
 X[6,0] X[6,1] X[6,2] X[6,3] X[6,4] X[6,5] X[6,7] X[6,8] X[6,9] X[6,10]
 X[7,0] X[7,1] X[7,2] X[7,3] X[7,4] X[7,5] X[7,6] X[7,8] X[7,9] X[7,10]
 X[8,0] X[8,1] X[8,2] X[8,3] X[8,4] X[8,5] X[8,6] X[8,7] X[8,9] X[8,10]
 X[9,0] X[9,1] X[9,2] X[9,3] X[9,4] X[9,5] X[9,6] X[9,7] X[9,8] X[9,10]
 X[10,0] X[10,1] X[10,2] X[10,3] X[10,4] X[10,5] X[10,6] X[10,7] X[10,8]
 X[10,9]
End
